90
2009
4
19
38
86
57
0 2
0 3
0 4
0 5
0 7
0 9
0 11
0 13
0 15
0 16
0 17
0 18
0 19
0 20
0 22
0 23
0 27
0 30
0 31
0 32
0 34
0 37
0 38
0 42
0 44
0 46
0 49
0 52
0 54
0 55
0 57
0 60
0 61
0 64
0 69
0 70
0 71
0 73
0 74
0 75
0 76
0 77
0 82
0 84
0 85
0 86
0 89
1 4
1 8
1 9
1 10
1 14
1 16
1 17
1 22
1 25
1 31
1 33
1 39
1 40
1 43
1 44
1 47
1 50
1 51
1 54
1 55
1 56
1 58
1 61
1 62
1 63
1 66
1 67
1 69
1 70
1 71
1 73
1 74
1 75
1 77
1 79
1 83
1 84
1 85
1 86
1 87
1 89
2 3
2 4
2 5
2 10
2 11
2 12
2 13
2 14
2 15
2 16
2 17
2 18
2 19
2 20
2 23
2 24
2 26
2 28
2 29
2 30
2 31
2 32
2 33
2 39
2 40
2 43
2 45
2 50
2 52
2 55
2 56
2 57
2 61
2 62
2 64
2 66
2 68
2 69
2 70
2 71
2 72
2 76
2 77
2 78
2 81
2 82
2 83
2 84
2 86
2 87
2 89
3 4
3 7
3 8
3 11
3 12
3 15
3 17
3 19
3 20
3 21
3 22
3 25
3 26
3 27
3 28
3 29
3 32
3 33
3 34
3 37
3 38
3 40
3 42
3 44
3 45
3 47
3 48
3 49
3 50
3 54
3 55
3 56
3 57
3 64
3 67
3 68
3 69
3 72
3 75
3 76
3 78
3 80
3 82
3 84
3 85
3 87
3 88
4 6
4 7
4 9
4 10
4 11
4 12
4 14
4 16
4 17
4 21
4 25
4 26
4 29
4 30
4 33
4 34
4 35
4 36
4 38
4 40
4 42
4 43
4 44
4 48
4 50
4 52
4 55
4 56
4 57
4 58
4 59
4 62
4 65
4 67
4 69
4 71
4 72
4 75
4 77
4 79
4 80
4 81
4 83
4 86
4 88
5 7
5 8
5 9
5 13
5 14
5 15
5 16
5 18
5 19
5 20
5 23
5 24
5 26
5 28
5 29
5 30
5 33
5 34
5 36
5 37
5 38
5 40
5 45
5 46
5 51
5 53
5 59
5 60
5 64
5 65
5 66
5 67
5 70
5 71
5 72
5 75
5 77
5 78
5 80
5 85
5 87
5 89
6 9
6 10
6 14
6 15
6 16
6 19
6 20
6 21
6 22
6 23
6 27
6 28
6 31
6 32
6 34
6 36
6 37
6 41
6 43
6 44
6 45
6 47
6 52
6 56
6 62
6 63
6 64
6 66
6 68
6 69
6 74
6 75
6 78
6 80
6 82
6 84
6 85
6 88
7 8
7 9
7 10
7 13
7 15
7 16
7 18
7 21
7 26
7 27
7 28
7 30
7 32
7 36
7 37
7 40
7 41
7 42
7 44
7 45
7 49
7 50
7 51
7 52
7 53
7 57
7 58
7 59
7 62
7 65
7 67
7 69
7 70
7 71
7 72
7 74
7 77
7 78
7 80
7 83
7 84
7 88
8 11
8 16
8 17
8 18
8 20
8 21
8 22
8 23
8 24
8 27
8 28
8 29
8 32
8 35
8 36
8 40
8 43
8 44
8 45
8 48
8 51
8 52
8 54
8 57
8 60
8 63
8 65
8 67
8 68
8 71
8 72
8 77
8 78
8 79
8 81
8 84
8 85
9 10
9 11
9 13
9 15
9 16
9 18
9 20
9 23
9 24
9 25
9 26
9 28
9 29
9 30
9 32
9 34
9 35
9 36
9 37
9 38
9 43
9 44
9 45
9 46
9 50
9 56
9 58
9 60
9 63
9 64
9 67
9 71
9 73
9 74
9 75
9 78
9 81
9 82
9 83
9 84
9 85
9 89
10 12
10 14
10 15
10 16
10 18
10 19
10 23
10 24
10 28
10 29
10 31
10 34
10 35
10 36
10 37
10 40
10 42
10 43
10 45
10 46
10 47
10 48
10 53
10 54
10 55
10 58
10 59
10 64
10 68
10 70
10 71
10 72
10 73
10 74
10 76
10 77
10 79
10 80
10 81
10 84
10 85
10 87
10 88
10 89
11 12
11 18
11 19
11 20
11 21
11 26
11 29
11 31
11 36
11 37
11 39
11 40
11 43
11 44
11 45
11 48
11 51
11 54
11 61
11 64
11 65
11 68
11 69
11 70
11 72
11 73
11 74
11 75
11 78
11 83
11 88
11 89
12 15
12 16
12 17
12 18
12 20
12 21
12 22
12 23
12 24
12 28
12 29
12 31
12 32
12 35
12 42
12 43
12 48
12 52
12 53
12 54
12 56
12 59
12 60
12 61
12 63
12 64
12 65
12 66
12 68
12 70
12 72
12 73
12 74
12 76
12 79
12 81
12 83
12 85
12 86
12 87
12 89
13 16
13 17
13 18
13 19
13 22
13 23
13 25
13 26
13 27
13 28
13 29
13 31
13 32
13 33
13 35
13 40
13 42
13 43
13 45
13 46
13 49
13 50
13 55
13 61
13 66
13 68
13 70
13 72
13 73
13 74
13 75
13 76
13 77
13 79
13 80
13 82
13 83
13 84
13 85
13 87
13 88
13 89
14 16
14 17
14 19
14 20
14 21
14 22
14 23
14 29
14 34
14 35
14 36
14 37
14 39
14 42
14 43
14 44
14 45
14 46
14 47
14 48
14 49
14 50
14 55
14 56
14 57
14 62
14 67
14 74
14 75
14 76
14 79
14 85
15 17
15 19
15 21
15 23
15 24
15 25
15 27
15 28
15 29
15 31
15 34
15 35
15 36
15 37
15 38
15 39
15 40
15 42
15 44
15 47
15 50
15 51
15 53
15 54
15 58
15 59
15 61
15 63
15 65
15 70
15 72
15 73
15 75
15 76
15 77
15 78
15 79
15 81
15 82
15 83
15 86
15 87
15 88
15 89
16 17
16 20
16 21
16 23
16 24
16 26
16 27
16 32
16 33
16 35
16 37
16 38
16 40
16 42
16 43
16 44
16 45
16 48
16 52
16 54
16 55
16 57
16 60
16 64
16 65
16 66
16 67
16 69
16 71
16 74
16 75
16 76
16 77
16 79
16 80
16 81
16 83
16 84
16 85
16 87
16 88
16 89
17 18
17 22
17 24
17 25
17 26
17 27
17 29
17 30
17 32
17 33
17 36
17 37
17 38
17 39
17 40
17 41
17 44
17 45
17 46
17 49
17 50
17 51
17 52
17 55
17 57
17 58
17 59
17 60
17 62
17 63
17 64
17 65
17 67
17 68
17 73
17 74
17 78
17 80
17 83
17 86
18 19
18 22
18 23
18 26
18 27
18 33
18 37
18 44
18 45
18 46
18 47
18 48
18 49
18 51
18 55
18 56
18 58
18 59
18 60
18 64
18 66
18 72
18 74
18 75
18 76
18 77
18 79
18 82
18 83
19 24
19 26
19 28
19 29
19 30
19 34
19 35
19 36
19 37
19 40
19 41
19 42
19 43
19 49
19 51
19 52
19 62
19 63
19 64
19 65
19 66
19 68
19 71
19 74
19 75
19 77
19 78
19 79
19 83
19 84
19 85
19 86
19 87
19 88
19 89
20 21
20 23
20 24
20 26
20 27
20 31
20 33
20 34
20 35
20 36
20 38
20 41
20 43
20 47
20 49
20 53
20 55
20 57
20 59
20 60
20 61
20 65
20 67
20 68
20 70
20 72
20 73
20 77
20 79
20 80
20 81
20 84
20 85
20 86
20 87
20 89
21 25
21 26
21 27
21 28
21 30
21 31
21 32
21 36
21 40
21 42
21 43
21 44
21 45
21 46
21 47
21 50
21 51
21 53
21 55
21 57
21 59
21 60
21 61
21 63
21 67
21 68
21 70
21 71
21 74
21 75
21 77
21 78
21 79
21 81
21 86
22 23
22 24
22 25
22 26
22 27
22 30
22 31
22 32
22 34
22 35
22 36
22 37
22 38
22 39
22 40
22 41
22 42
22 44
22 45
22 47
22 50
22 51
22 52
22 53
22 54
22 55
22 57
22 60
22 64
22 65
22 67
22 69
22 70
22 73
22 75
22 76
22 78
22 80
22 82
22 83
22 85
22 86
22 87
22 89
23 25
23 28
23 29
23 32
23 33
23 37
23 38
23 40
23 43
23 46
23 48
23 49
23 50
23 51
23 52
23 54
23 55
23 57
23 60
23 63
23 64
23 65
23 67
23 69
23 70
23 72
23 75
23 76
23 79
23 81
23 84
23 85
23 86
23 87
23 89
24 26
24 28
24 29
24 30
24 35
24 37
24 38
24 44
24 46
24 48
24 49
24 50
24 51
24 54
24 55
24 57
24 59
24 60
24 61
24 62
24 63
24 64
24 65
24 68
24 69
24 73
24 74
24 75
24 78
24 83
24 85
24 86
24 87
24 89
25 26
25 27
25 30
25 31
25 32
25 33
25 34
25 35
25 36
25 37
25 40
25 41
25 46
25 47
25 48
25 49
25 53
25 54
25 57
25 58
25 59
25 62
25 63
25 69
25 71
25 73
25 74
25 75
25 77
25 79
25 81
25 82
25 85
25 86
25 87
25 88
26 27
26 29
26 30
26 32
26 35
26 38
26 39
26 40
26 43
26 46
26 47
26 48
26 50
26 51
26 59
26 60
26 62
26 63
26 65
26 66
26 69
26 70
26 71
26 74
26 76
26 77
26 79
26 81
26 82
26 83
26 87
27 28
27 29
27 30
27 33
27 34
27 39
27 41
27 42
27 45
27 50
27 51
27 52
27 54
27 55
27 57
27 58
27 59
27 65
27 66
27 68
27 71
27 72
27 75
27 76
27 77
27 81
27 83
27 87
27 88
27 89
28 29
28 32
28 33
28 34
28 37
28 40
28 41
28 44
28 46
28 47
28 50
28 51
28 52
28 54
28 58
28 59
28 61
28 63
28 65
28 67
28 68
28 70
28 72
28 73
28 75
28 76
28 79
28 81
28 82
28 85
28 86
28 88
29 30
29 31
29 32
29 34
29 35
29 37
29 39
29 41
29 42
29 43
29 44
29 45
29 46
29 49
29 50
29 51
29 55
29 57
29 58
29 59
29 63
29 66
29 68
29 69
29 72
29 75
29 76
29 77
29 78
29 80
29 82
29 84
29 85
29 87
29 88
29 89
30 32
30 35
30 40
30 41
30 42
30 44
30 45
30 48
30 50
30 51
30 53
30 54
30 55
30 56
30 57
30 59
30 60
30 64
30 65
30 66
30 67
30 68
30 70
30 71
30 73
30 74
30 75
30 76
30 77
30 78
30 80
30 85
30 86
30 87
31 33
31 34
31 35
31 37
31 39
31 41
31 43
31 44
31 45
31 46
31 47
31 48
31 49
31 50
31 51
31 52
31 54
31 55
31 57
31 59
31 60
31 61
31 65
31 66
31 68
31 69
31 71
31 72
31 74
31 75
31 79
31 80
31 83
31 84
31 85
31 86
32 37
32 38
32 39
32 40
32 41
32 42
32 45
32 46
32 48
32 53
32 55
32 57
32 58
32 60
32 61
32 62
32 64
32 67
32 68
32 69
32 71
32 73
32 76
32 77
32 78
32 81
32 82
32 85
32 87
33 34
33 35
33 36
33 37
33 38
33 41
33 43
33 45
33 54
33 55
33 56
33 59
33 63
33 64
33 67
33 68
33 72
33 75
33 76
33 77
33 78
33 79
33 80
33 84
33 85
33 86
33 89
34 35
34 36
34 38
34 39
34 41
34 42
34 45
34 50
34 54
34 57
34 61
34 64
34 68
34 69
34 70
34 71
34 75
34 77
34 79
34 80
34 81
34 82
34 84
34 85
34 87
35 36
35 43
35 44
35 46
35 47
35 52
35 53
35 57
35 59
35 61
35 62
35 63
35 66
35 67
35 68
35 69
35 78
35 80
35 82
35 85
35 87
35 89
36 38
36 40
36 43
36 47
36 49
36 50
36 52
36 56
36 59
36 60
36 61
36 62
36 65
36 66
36 72
36 73
36 77
36 79
36 83
36 85
36 87
37 40
37 45
37 47
37 49
37 51
37 55
37 56
37 58
37 61
37 66
37 69
37 71
37 73
37 75
37 77
37 79
37 81
37 82
37 83
37 85
37 86
37 87
37 89
38 39
38 40
38 44
38 45
38 46
38 48
38 50
38 52
38 54
38 55
38 57
38 58
38 59
38 62
38 65
38 66
38 69
38 72
38 73
38 74
38 75
38 78
38 82
38 86
38 87
39 42
39 46
39 47
39 51
39 52
39 54
39 55
39 57
39 58
39 59
39 60
39 64
39 66
39 67
39 73
39 75
39 78
39 81
39 82
39 86
39 88
40 41
40 42
40 47
40 51
40 53
40 54
40 55
40 57
40 59
40 61
40 62
40 63
40 65
40 67
40 70
40 71
40 74
40 75
40 76
40 79
40 83
40 84
40 85
40 88
40 89
41 45
41 47
41 48
41 53
41 54
41 61
41 70
41 71
41 72
41 73
41 74
41 75
41 76
41 79
41 82
41 83
41 86
41 88
42 43
42 44
42 47
42 50
42 52
42 53
42 54
42 55
42 61
42 62
42 64
42 65
42 68
42 74
42 79
42 82
42 85
42 87
42 88
42 89
43 49
43 50
43 52
43 55
43 57
43 63
43 64
43 66
43 67
43 68
43 72
43 75
43 81
43 82
43 83
43 84
43 85
43 87
43 88
43 89
44 46
44 47
44 49
44 50
44 52
44 55
44 57
44 62
44 67
44 68
44 69
44 71
44 72
44 74
44 76
44 77
44 78
44 80
44 84
44 86
44 89
45 48
45 49
45 51
45 52
45 57
45 58
45 60
45 61
45 67
45 69
45 70
45 71
45 72
45 76
45 78
45 81
45 83
45 84
45 86
46 47
46 48
46 49
46 50
46 52
46 53
46 54
46 55
46 57
46 58
46 59
46 60
46 61
46 65
46 66
46 67
46 68
46 70
46 71
46 72
46 75
46 78
46 81
46 83
46 84
46 86
46 87
46 88
46 89
47 49
47 52
47 53
47 54
47 56
47 57
47 61
47 62
47 64
47 65
47 67
47 68
47 70
47 72
47 74
47 75
47 76
47 78
47 79
47 80
47 84
47 86
47 87
47 88
47 89
48 52
48 55
48 56
48 57
48 62
48 65
48 68
48 69
48 70
48 73
48 74
48 75
48 76
48 79
48 80
48 81
48 83
48 84
48 85
48 88
49 50
49 51
49 57
49 58
49 60
49 64
49 66
49 70
49 71
49 72
49 73
49 74
49 75
49 77
49 80
49 81
49 84
49 85
49 86
49 87
49 89
50 51
50 52
50 53
50 54
50 58
50 61
50 62
50 63
50 64
50 68
50 70
50 73
50 76
50 78
50 83
50 84
50 85
50 86
51 53
51 55
51 57
51 58
51 60
51 64
51 67
51 68
51 69
51 72
51 74
51 75
51 76
51 78
51 80
51 82
51 84
51 85
51 86
51 87
51 89
52 53
52 54
52 56
52 57
52 58
52 59
52 61
52 64
52 69
52 72
52 75
52 80
52 82
52 85
52 86
52 88
53 54
53 55
53 56
53 58
53 60
53 62
53 64
53 66
53 67
53 71
53 72
53 75
53 76
53 77
53 86
53 87
53 89
54 55
54 61
54 65
54 66
54 67
54 68
54 69
54 70
54 71
54 74
54 76
54 77
54 82
54 83
55 56
55 58
55 61
55 66
55 67
55 71
55 72
55 73
55 74
55 76
55 78
55 82
55 85
55 86
56 57
56 58
56 64
56 65
56 68
56 70
56 74
56 75
56 76
56 83
56 85
56 86
56 87
56 88
57 58
57 59
57 60
57 61
57 62
57 64
57 65
57 67
57 69
57 70
57 71
57 72
57 75
57 76
57 79
57 80
57 83
57 84
57 86
57 87
57 89
58 65
58 66
58 67
58 69
58 75
58 76
58 81
58 82
58 86
58 88
58 89
59 60
59 62
59 63
59 65
59 66
59 67
59 68
59 69
59 72
59 73
59 74
59 78
59 80
59 83
59 86
59 87
59 88
59 89
60 63
60 64
60 65
60 66
60 67
60 71
60 73
60 76
60 77
60 80
60 82
60 86
60 88
60 89
61 65
61 68
61 69
61 70
61 71
61 73
61 74
61 77
61 78
61 79
61 84
61 85
61 88
61 89
62 65
62 69
62 73
62 79
62 80
62 82
62 84
62 85
62 88
62 89
63 65
63 67
63 69
63 73
63 78
63 80
63 81
63 82
63 83
63 84
63 86
63 87
63 89
64 65
64 69
64 70
64 72
64 75
64 76
64 79
64 81
64 82
64 83
64 86
64 87
65 66
65 67
65 68
65 72
65 74
65 78
65 80
65 82
65 85
65 88
66 68
66 69
66 70
66 72
66 73
66 75
66 76
66 77
66 78
66 85
66 89
67 71
67 73
67 74
67 75
67 79
67 83
67 84
67 85
67 88
67 89
68 69
68 71
68 72
68 77
68 78
68 81
68 85
69 73
69 76
69 79
69 81
69 83
69 85
69 88
70 71
70 73
70 74
70 76
70 80
70 81
70 86
71 72
71 75
71 77
71 80
71 81
71 85
72 73
72 74
72 76
72 78
72 80
72 81
72 82
72 84
72 87
72 88
73 75
73 76
73 77
73 80
73 83
73 85
73 86
73 87
73 89
74 75
74 77
74 78
74 80
74 81
74 82
74 84
74 86
74 87
74 88
74 89
75 77
75 79
75 80
75 83
75 86
75 88
75 89
76 77
76 81
76 87
76 88
77 78
77 81
77 82
77 83
77 87
77 88
78 79
78 80
78 82
78 87
79 80
79 81
79 84
79 86
79 88
80 81
80 82
80 84
80 85
80 88
81 84
81 86
81 88
81 89
82 85
82 87
82 88
82 89
83 84
83 87
83 88
84 87
84 88
85 86
85 87
85 89
86 87
86 88
86 89
87 88
14 28 57 9 37 13 85 26 68 6 41 71 83 33 62 3 55 77 73 69 86 25 45 80 21 47 49
24 75 5 12 18 17 88 61 1 39 56 53 84 87 66 46 0 40 22 31 81 64 89 15 27 30 67
48 70 54 44 50 72 52 2 32 36 43 65 8 23 35 51 38 63 79 82 4 10 60 74 19 78 58
76 20 59 7 11 42 34 29 16
